
  32    1
  10

   0   0   5 2 3 4 6 7 
   8   1   4 11 10 9 8 
   8   4   2 8 5 
   4   4   4 14 13 11 9 
   9   1   3 14 11 9 
   5   2   3 13 12 11 
   3   2   2 14 9 
   6   2   4 18 15 14 12 
   3   4   3 18 15 12 
   9   1   3 18 14 12 
   3   1   4 22 18 17 15 
   4   2   3 22 17 16 
   9   1   3 22 19 17 
   6   1   2 19 17 
   3   4   1 16 
   6   1   3 28 23 19 
   7   6   4 28 23 21 20 
  10   1   2 23 19 
   2   1   2 21 20 
   6   2   4 31 27 26 24 
   5   1   3 26 25 24 
   3   1   2 25 24 
  10   2   2 31 24 
   3   1   2 30 29 
   9   1   1 31 
   3   3   1 29 
   3   2   1 30 
   2   2   1 29 
   9   1   1 32
   7   3   1 32
   6   2   1 32
   0   0   0 
